Instance: E101-08e.dat
Class:  2
  100 --- number of customers (no depot)
   21 --- number of vehicles
  157 --- number of items
Capacity - height - width of vehicles
   200     40     20
Node - x - y - demand
    0    35.0    35.0     0.0
    1    41.0    49.0    10.0
    2    35.0    17.0     7.0
    3    55.0    45.0    13.0
    4    55.0    20.0    19.0
    5    15.0    30.0    26.0
    6    25.0    30.0     3.0
    7    20.0    50.0     5.0
    8    10.0    43.0     9.0
    9    55.0    60.0    16.0
   10    30.0    60.0    16.0
   11    20.0    65.0    12.0
   12    50.0    35.0    19.0
   13    30.0    25.0    23.0
   14    15.0    10.0    20.0
   15    30.0     5.0     8.0
   16    10.0    20.0    19.0
   17     5.0    30.0     2.0
   18    20.0    40.0    12.0
   19    15.0    60.0    17.0
   20    45.0    65.0     9.0
   21    45.0    20.0    11.0
   22    45.0    10.0    18.0
   23    55.0     5.0    29.0
   24    65.0    35.0     3.0
   25    65.0    20.0     6.0
   26    45.0    30.0    17.0
   27    35.0    40.0    16.0
   28    41.0    37.0    16.0
   29    64.0    42.0     9.0
   30    40.0    60.0    21.0
   31    31.0    52.0    27.0
   32    35.0    69.0    23.0
   33    53.0    52.0    11.0
   34    65.0    55.0    14.0
   35    63.0    65.0     8.0
   36     2.0    60.0     5.0
   37    20.0    20.0     8.0
   38     5.0     5.0    16.0
   39    60.0    12.0    31.0
   40    40.0    25.0     9.0
   41    42.0     7.0     5.0
   42    24.0    12.0     5.0
   43    23.0     3.0     7.0
   44    11.0    14.0    18.0
   45     6.0    38.0    16.0
   46     2.0    48.0     1.0
   47     8.0    56.0    27.0
   48    13.0    52.0    36.0
   49     6.0    68.0    30.0
   50    47.0    47.0    13.0
   51    49.0    58.0    10.0
   52    27.0    43.0     9.0
   53    37.0    31.0    14.0
   54    57.0    29.0    18.0
   55    63.0    23.0     2.0
   56    53.0    12.0     6.0
   57    32.0    12.0     7.0
   58    36.0    26.0    18.0
   59    21.0    24.0    28.0
   60    17.0    34.0     3.0
   61    12.0    24.0    13.0
   62    24.0    58.0    19.0
   63    27.0    69.0    10.0
   64    15.0    77.0     9.0
   65    62.0    77.0    20.0
   66    49.0    73.0    25.0
   67    67.0     5.0    25.0
   68    56.0    39.0    36.0
   69    37.0    47.0     6.0
   70    37.0    56.0     5.0
   71    57.0    68.0    15.0
   72    47.0    16.0    25.0
   73    44.0    17.0     9.0
   74    46.0    13.0     8.0
   75    49.0    11.0    18.0
   76    49.0    42.0    13.0
   77    53.0    43.0    14.0
   78    61.0    52.0     3.0
   79    57.0    48.0    23.0
   80    56.0    37.0     6.0
   81    55.0    54.0    26.0
   82    15.0    47.0    16.0
   83    14.0    37.0    11.0
   84    11.0    31.0     7.0
   85    16.0    22.0    41.0
   86     4.0    18.0    35.0
   87    28.0    18.0    26.0
   88    26.0    52.0     9.0
   89    26.0    35.0    15.0
   90    31.0    67.0     3.0
   91    15.0    19.0     1.0
   92    22.0    22.0     2.0
   93    18.0    24.0    22.0
   94    26.0    27.0    27.0
   95    25.0    24.0    20.0
   96    22.0    27.0    11.0
   97    25.0    21.0    12.0
   98    19.0    21.0    10.0
   99    20.0    26.0     9.0
  100    18.0    18.0    17.0
Node - number of items - h - w for each item
    0   0
    1   1   33    2
    2   2   15    7   31    3
    3   1    7   18
    4   1   13    5
    5   1   35    3
    6   2    8   18   18    3
    7   1    9    9
    8   2    8    9    8    8
    9   1    7   17
   10   1   31    3
   11   2   10    7   32    4
   12   2   14   10   14    5
   13   2    6   15   30    4
   14   1   14    8
   15   2   10    8   17    6
   16   2    4   17    4    8
   17   2   11    5   33    4
   18   2    6   11   16    6
   19   1   36    3
   20   1   16   10
   21   2   12    9   28    4
   22   2   35    3   22    3
   23   2    6    9   31    3
   24   2    6   13   18    9
   25   1    7   17
   26   1    6   13
   27   1   14    9
   28   2   20    9   34    3
   29   2   12    9   23    4
   30   2   34    2   22    2
   31   2    6   13    6   10
   32   1   29    4
   33   1   27    3
   34   1    4    9
   35   2   14    7   19    3
   36   2    5   16    5   10
   37   2    5   10   18    3
   38   1    7   18
   39   2    6   16   31    3
   40   2   11    8   17    7
   41   2    6    9   14    8
   42   2    9    7   31    4
   43   1   35    4
   44   1   31    2
   45   2    6   17   15    7
   46   1   16    2
   47   2   10    5   22    3
   48   2    7   14   27    3
   49   1   11    7
   50   1    5   18
   51   1    8   16
   52   2    5   10   19    5
   53   1   32    2
   54   2   15    9   20    7
   55   2    5   18    4   14
   56   1    6   17
   57   2    8    6    8    6
   58   2    7   12   32    4
   59   1   20    3
   60   1   33    2
   61   2    5   14   28    3
   62   2    8   14   16   10
   63   2    8    7   23    3
   64   2    6   12    5    9
   65   1   19    6
   66   2   11    8   19    3
   67   2   20   10   22    3
   68   1    7   13
   69   2    6   12   25    3
   70   2   14    9   18    2
   71   2    6   16   24    3
   72   2    8   12   34    2
   73   1   18    6
   74   2   11    6   17    4
   75   1   31    3
   76   1    6    9
   77   2   17    8   15    4
   78   2    7   17   20    3
   79   2    8   17   21    2
   80   1   10    5
   81   2    7   13    7   12
   82   2    5   14   20    3
   83   1    7   18
   84   2    7   15    9    5
   85   1   13   10
   86   2   12    9   31    3
   87   1   16    9
   88   2    7   18    5   14
   89   1    6    9
   90   2   27    4   18    2
   91   1   17    3
   92   1   22    4
   93   2    8   17    4   17
   94   1    7   13
   95   2    4    9   16    8
   96   1   28    2
   97   1   35    3
   98   2   10    7    8    7
   99   1   16    9
  100   2   16    9   28    2
